WARNING: for repeatability, setting FPU to use double precision
============================[ Problem Statistics ]=============================
|                                                                             |
|  Number of variables:          4128                                         |
|  Number of clauses:           13664                                         |
|  Parse time:                   0.00 s                                       |
|                                                                             |
c ============================[ Search Statistics ]==============================
c | Conflicts |          ORIGINAL         |          LEARNT          | Progress |
c |           |    Vars  Clauses Literals |    Limit  Clauses Lit/Cl |          |
c ===============================================================================
c Switched to VSIDS.
c Switched to LRB.
c Switched to VSIDS.
c Switched to LRB.
c Switched to VSIDS.
c Switched to LRB.
c Switched to VSIDS.
c Switched to LRB.
c Switched to VSIDS.
c Switched to LRB.
c Switched to VSIDS.
c Switched to LRB.
c Switched to VSIDS.
c Switched to LRB.
c Switched to VSIDS.
c Switched to LRB.
c Switched to VSIDS.
c Switched to LRB.
c Switched to VSIDS.
c Switched to LRB.
c Switched to VSIDS.
c Switched to LRB.
c Switched to VSIDS.
c Switched to LRB.
c Switched to VSIDS.
c Switched to LRB.
c ===============================================================================
restarts                  : 7542
conflicts                 : 4512713        (1263 /sec)
decisions                 : 5502814        (0.00 % random) (1540 /sec)
propagations              : 4015188528     (1123503 /sec)
conflict literals         : 246986596      (66.22 % deleted)

conflicts w/ DIP found    : 2763576        (61.24 % of conflicts)
conflicts w/ dangerous DIP: 0              (0.00 % of conflicts)
conflicts w/ DIP-learning : 6017           (0.13 % of conflicts)
decisions on ext vars     : 1427           (0.03 % of decisions)
total ext vars            : 2660        
tried delete ext vars     : 2264        
deleted ext vars          : 2264        
max ext vars              : 782         

Memory used               : 155.00 MB
CPU time                  : 3573.81 s
DIP computation time      : 214.86 s (6.01 % of total time)
ER_sel time               : 5.0751 s
ER_add time               : 0.012552 s
ER_delC time              : 0 s
ER_delV time              : 0.441876 s
ER_sub time               : 6.40721 s
ER_stat time              : 0 s

INDETERMINATE
